\Problem name: compact

Minimize
OBJROW: C
Subject To
ord(0,1):  x(0,0) - x(0,2) >= 4
ord(0,2):  - x(0,0) + x(0,1) >= 3
ord(1,1):  x(1,1) - x(1,2) >= 10
ord(1,2):  x(1,0) - x(1,1) >= 9
ord(2,1):  x(2,0) - x(2,2) >= 7
ord(2,2):  - x(2,0) + x(2,1) >= 1
triangle2(0,1,0):  y(0,1,0) + y(1,0,0) = 1
triangle2(0,1,1):  y(0,1,1) + y(1,0,1) = 1
triangle2(0,1,2):  y(0,1,2) + y(1,0,2) = 1
triangle2(0,2,0):  y(0,2,0) + y(2,0,0) = 1
triangle2(0,2,1):  y(0,2,1) + y(2,0,1) = 1
triangle2(0,2,2):  y(0,2,2) + y(2,0,2) = 1
triangle2(1,2,0):  y(1,2,0) + y(2,1,0) = 1
triangle2(1,2,1):  y(1,2,1) + y(2,1,1) = 1
triangle2(1,2,2):  y(1,2,2) + y(2,1,2) = 1
MCLinV(0,1,0):  x(0,0) - v(0,1,0) - x(1,0) = 9
MCLinV(1,0,0):  - x(0,0) - v(1,0,0) + x(1,0) = 3
MCLin1(0,1,0):  u(0,1,0) >= -0
MCLin2(0,1,0):  -55 y(1,0,0) - u(0,1,0) <= -0
MCLin3(0,1,0):  22 y(1,0,0) + v(0,1,0) - u(0,1,0) <= 22
MCLin4(0,1,0):  22 y(1,0,0) - u(0,1,0) >= -0
MCLin5(0,1,0):  -55 y(1,0,0) + v(0,1,0) - u(0,1,0) >= -55
MCLin6(1,0,0):  u(1,0,0) >= -0
MCLin7(1,0,0):  -34 y(0,1,0) - u(1,0,0) <= -0
MCLin8(1,0,0):  43 y(0,1,0) + v(1,0,0) - u(1,0,0) <= 43
MCLin9(1,0,0):  43 y(0,1,0) - u(1,0,0) >= -0
MCLin10(1,0,0):  -34 y(0,1,0) + v(1,0,0) - u(1,0,0) >= -34
MCLinV(0,1,1):  x(0,1) - v(0,1,1) - x(1,1) = 9
MCLinV(1,0,1):  - x(0,1) - v(1,0,1) + x(1,1) = 6
MCLin1(0,1,1):  u(0,1,1) >= -0
MCLin2(0,1,1):  -43 y(1,0,1) - u(0,1,1) <= -0
MCLin3(0,1,1):  34 y(1,0,1) + v(0,1,1) - u(0,1,1) <= 34
MCLin4(0,1,1):  34 y(1,0,1) - u(0,1,1) >= -0
MCLin5(0,1,1):  -43 y(1,0,1) + v(0,1,1) - u(0,1,1) >= -43
MCLin6(1,0,1):  u(1,0,1) >= -0
MCLin7(1,0,1):  -49 y(0,1,1) - u(1,0,1) <= -0
MCLin8(1,0,1):  28 y(0,1,1) + v(1,0,1) - u(1,0,1) <= 28
MCLin9(1,0,1):  28 y(0,1,1) - u(1,0,1) >= -0
MCLin10(1,0,1):  -49 y(0,1,1) + v(1,0,1) - u(1,0,1) >= -49
MCLinV(0,1,2):  x(0,2) - v(0,1,2) - x(1,2) = 10
MCLinV(1,0,2):  - x(0,2) - v(1,0,2) + x(1,2) = 4
MCLin1(0,1,2):  u(0,1,2) >= -0
MCLin2(0,1,2):  -41 y(1,0,2) - u(0,1,2) <= -0
MCLin3(0,1,2):  36 y(1,0,2) + v(0,1,2) - u(0,1,2) <= 36
MCLin4(0,1,2):  36 y(1,0,2) - u(0,1,2) >= -0
MCLin5(0,1,2):  -41 y(1,0,2) + v(0,1,2) - u(0,1,2) >= -41
MCLin6(1,0,2):  u(1,0,2) >= -0
MCLin7(1,0,2):  -50 y(0,1,2) - u(1,0,2) <= -0
MCLin8(1,0,2):  27 y(0,1,2) + v(1,0,2) - u(1,0,2) <= 27
MCLin9(1,0,2):  27 y(0,1,2) - u(1,0,2) >= -0
MCLin10(1,0,2):  -50 y(0,1,2) + v(1,0,2) - u(1,0,2) >= -50
MCLinV(0,2,0):  x(0,0) - v(0,2,0) - x(2,0) = 1
MCLinV(2,0,0):  - x(0,0) - v(2,0,0) + x(2,0) = 3
MCLin1(0,2,0):  u(0,2,0) >= -0
MCLin2(0,2,0):  -45 y(2,0,0) - u(0,2,0) <= -0
MCLin3(0,2,0):  42 y(2,0,0) + v(0,2,0) - u(0,2,0) <= 42
MCLin4(0,2,0):  42 y(2,0,0) - u(0,2,0) >= -0
MCLin5(0,2,0):  -45 y(2,0,0) + v(0,2,0) - u(0,2,0) >= -45
MCLin6(2,0,0):  u(2,0,0) >= -0
MCLin7(2,0,0):  -46 y(0,2,0) - u(2,0,0) <= -0
MCLin8(2,0,0):  41 y(0,2,0) + v(2,0,0) - u(2,0,0) <= 41
MCLin9(2,0,0):  41 y(0,2,0) - u(2,0,0) >= -0
MCLin10(2,0,0):  -46 y(0,2,0) + v(2,0,0) - u(2,0,0) >= -46
MCLinV(0,2,1):  x(0,1) - v(0,2,1) - x(2,1) = 10
MCLinV(2,0,1):  - x(0,1) - v(2,0,1) + x(2,1) = 6
MCLin1(0,2,1):  u(0,2,1) >= -0
MCLin2(0,2,1):  -52 y(2,0,1) - u(0,2,1) <= -0
MCLin3(0,2,1):  35 y(2,0,1) + v(0,2,1) - u(0,2,1) <= 35
MCLin4(0,2,1):  35 y(2,0,1) - u(0,2,1) >= -0
MCLin5(0,2,1):  -52 y(2,0,1) + v(0,2,1) - u(0,2,1) >= -52
MCLin6(2,0,1):  u(2,0,1) >= -0
MCLin7(2,0,1):  -51 y(0,2,1) - u(2,0,1) <= -0
MCLin8(2,0,1):  36 y(0,2,1) + v(2,0,1) - u(2,0,1) <= 36
MCLin9(2,0,1):  36 y(0,2,1) - u(2,0,1) >= -0
MCLin10(2,0,1):  -51 y(0,2,1) + v(2,0,1) - u(2,0,1) >= -51
MCLinV(0,2,2):  x(0,2) - v(0,2,2) - x(2,2) = 7
MCLinV(2,0,2):  - x(0,2) - v(2,0,2) + x(2,2) = 4
MCLin1(0,2,2):  u(0,2,2) >= -0
MCLin2(0,2,2):  -48 y(2,0,2) - u(0,2,2) <= -0
MCLin3(0,2,2):  39 y(2,0,2) + v(0,2,2) - u(0,2,2) <= 39
MCLin4(0,2,2):  39 y(2,0,2) - u(0,2,2) >= -0
MCLin5(0,2,2):  -48 y(2,0,2) + v(0,2,2) - u(0,2,2) >= -48
MCLin6(2,0,2):  u(2,0,2) >= -0
MCLin7(2,0,2):  -50 y(0,2,2) - u(2,0,2) <= -0
MCLin8(2,0,2):  37 y(0,2,2) + v(2,0,2) - u(2,0,2) <= 37
MCLin9(2,0,2):  37 y(0,2,2) - u(2,0,2) >= -0
MCLin10(2,0,2):  -50 y(0,2,2) + v(2,0,2) - u(2,0,2) >= -50
MCLinV(1,2,0):  x(1,0) - v(1,2,0) - x(2,0) = 1
MCLinV(2,1,0):  - x(1,0) - v(2,1,0) + x(2,0) = 9
MCLin1(1,2,0):  u(1,2,0) >= -0
MCLin2(1,2,0):  -30 y(2,1,0) - u(1,2,0) <= -0
MCLin3(1,2,0):  42 y(2,1,0) + v(1,2,0) - u(1,2,0) <= 42
MCLin4(1,2,0):  42 y(2,1,0) - u(1,2,0) >= -0
MCLin5(1,2,0):  -30 y(2,1,0) + v(1,2,0) - u(1,2,0) >= -30
MCLin6(2,1,0):  u(2,1,0) >= -0
MCLin7(2,1,0):  -52 y(1,2,0) - u(2,1,0) <= -0
MCLin8(2,1,0):  20 y(1,2,0) + v(2,1,0) - u(2,1,0) <= 20
MCLin9(2,1,0):  20 y(1,2,0) - u(2,1,0) >= -0
MCLin10(2,1,0):  -52 y(1,2,0) + v(2,1,0) - u(2,1,0) >= -52
MCLinV(1,2,1):  x(1,1) - v(1,2,1) - x(2,1) = 10
MCLinV(2,1,1):  - x(1,1) - v(2,1,1) + x(2,1) = 9
MCLin1(1,2,1):  u(1,2,1) >= -0
MCLin2(1,2,1):  -49 y(2,1,1) - u(1,2,1) <= -0
MCLin3(1,2,1):  23 y(2,1,1) + v(1,2,1) - u(1,2,1) <= 23
MCLin4(1,2,1):  23 y(2,1,1) - u(1,2,1) >= -0
MCLin5(1,2,1):  -49 y(2,1,1) + v(1,2,1) - u(1,2,1) >= -49
MCLin6(2,1,1):  u(2,1,1) >= -0
MCLin7(2,1,1):  -42 y(1,2,1) - u(2,1,1) <= -0
MCLin8(2,1,1):  30 y(1,2,1) + v(2,1,1) - u(2,1,1) <= 30
MCLin9(2,1,1):  30 y(1,2,1) - u(2,1,1) >= -0
MCLin10(2,1,1):  -42 y(1,2,1) + v(2,1,1) - u(2,1,1) >= -42
MCLinV(1,2,2):  x(1,2) - v(1,2,2) - x(2,2) = 7
MCLinV(2,1,2):  - x(1,2) - v(2,1,2) + x(2,2) = 10
MCLin1(1,2,2):  u(1,2,2) >= -0
MCLin2(1,2,2):  -48 y(2,1,2) - u(1,2,2) <= -0
MCLin3(1,2,2):  24 y(2,1,2) + v(1,2,2) - u(1,2,2) <= 24
MCLin4(1,2,2):  24 y(2,1,2) - u(1,2,2) >= -0
MCLin5(1,2,2):  -48 y(2,1,2) + v(1,2,2) - u(1,2,2) >= -48
MCLin6(2,1,2):  u(2,1,2) >= -0
MCLin7(2,1,2):  -41 y(1,2,2) - u(2,1,2) <= -0
MCLin8(2,1,2):  31 y(1,2,2) + v(2,1,2) - u(2,1,2) <= 31
MCLin9(2,1,2):  31 y(1,2,2) - u(2,1,2) >= -0
MCLin10(2,1,2):  -41 y(1,2,2) + v(2,1,2) - u(2,1,2) >= -41
makespan(0):  C - x(0,1) >= 6
makespan(1):  C - x(1,0) >= 9
makespan(2):  C - x(2,1) >= 10
cut_clique_0(012,1):  0.04198 x(1,1) + 0.03053 x(2,1) >= 1
cut_clique_0(012,2):  0.14286 x(1,2) + 0.10000 x(2,2) >= 1
cut_clique_1(012,1):  0.00774 x(0,1) + 0.03368 x(1,1) + 0.02309 x(2,1) >= 1
cut_clique_1(012,2):  0.02899 x(0,2) + 0.07246 x(1,2) + 0.05072 x(2,2) >= 1
cut_clique_0:  0.01196 x(0,1) + 0.01794 x(1,1) + 0.01993 x(2,1) + 0.02784 x(1,2) + 0.00952 x(2,2) >= 1
cut_clique_1:  0.00969 x(0,1) + 0.02311 x(1,1) + 0.02568 x(2,1) + 0.01671 x(1,2) >= 1
Bounds
 0 <= C <= 59
 4 <= x(0,0) <= 50
 0 <= y(0,1,0) <= 1
 0 <= y(1,0,0) <= 1
 -55 <= v(0,1,0) <= 22
 -34 <= v(1,0,0) <= 43
 -590 <= u(0,1,0)
 -590 <= u(1,0,0)
 0 <= y(0,2,0) <= 1
 0 <= y(2,0,0) <= 1
 -45 <= v(0,2,0) <= 42
 -46 <= v(2,0,0) <= 41
 -590 <= u(0,2,0)
 -590 <= u(2,0,0)
 19 <= x(1,0) <= 50
 0 <= y(1,2,0) <= 1
 0 <= y(2,1,0) <= 1
 -30 <= v(1,2,0) <= 42
 -52 <= v(2,1,0) <= 20
 -590 <= u(1,2,0)
 -590 <= u(2,1,0)
 7 <= x(2,0) <= 48
 7 <= x(0,1) <= 53
 0 <= y(0,1,1) <= 1
 0 <= y(1,0,1) <= 1
 -43 <= v(0,1,1) <= 34
 -49 <= v(1,0,1) <= 28
 -590 <= u(0,1,1)
 -590 <= u(1,0,1)
 0 <= y(0,2,1) <= 1
 0 <= y(2,0,1) <= 1
 -52 <= v(0,2,1) <= 35
 -51 <= v(2,0,1) <= 36
 -590 <= u(0,2,1)
 -590 <= u(2,0,1)
 10 <= x(1,1) <= 41
 0 <= y(1,2,1) <= 1
 0 <= y(2,1,1) <= 1
 -49 <= v(1,2,1) <= 23
 -42 <= v(2,1,1) <= 30
 -590 <= u(1,2,1)
 -590 <= u(2,1,1)
 8 <= x(2,1) <= 49
 0 <= x(0,2) <= 46
 0 <= y(0,1,2) <= 1
 0 <= y(1,0,2) <= 1
 -41 <= v(0,1,2) <= 36
 -50 <= v(1,0,2) <= 27
 -590 <= u(0,1,2)
 -590 <= u(1,0,2)
 0 <= y(0,2,2) <= 1
 0 <= y(2,0,2) <= 1
 -48 <= v(0,2,2) <= 39
 -50 <= v(2,0,2) <= 37
 -590 <= u(0,2,2)
 -590 <= u(2,0,2)
 0 <= x(1,2) <= 31
 0 <= y(1,2,2) <= 1
 0 <= y(2,1,2) <= 1
 -48 <= v(1,2,2) <= 24
 -41 <= v(2,1,2) <= 31
 -590 <= u(1,2,2)
 -590 <= u(2,1,2)
 0 <= x(2,2) <= 41
Integers
C x(0,0) y(0,1,0) y(1,0,0) v(0,1,0) v(1,0,0) u(0,1,0) u(1,0,0) y(0,2,0) y(2,0,0) 
v(0,2,0) v(2,0,0) u(0,2,0) u(2,0,0) x(1,0) y(1,2,0) y(2,1,0) v(1,2,0) v(2,1,0) u(1,2,0) 
u(2,1,0) x(2,0) x(0,1) y(0,1,1) y(1,0,1) v(0,1,1) v(1,0,1) u(0,1,1) u(1,0,1) y(0,2,1) 
y(2,0,1) v(0,2,1) v(2,0,1) u(0,2,1) u(2,0,1) x(1,1) y(1,2,1) y(2,1,1) v(1,2,1) v(2,1,1) 
u(1,2,1) u(2,1,1) x(2,1) x(0,2) y(0,1,2) y(1,0,2) v(0,1,2) v(1,0,2) u(0,1,2) u(1,0,2) 
y(0,2,2) y(2,0,2) v(0,2,2) v(2,0,2) u(0,2,2) u(2,0,2) x(1,2) y(1,2,2) y(2,1,2) v(1,2,2) 
v(2,1,2) u(1,2,2) u(2,1,2) x(2,2) 
End
